Linux optc-09-16 4.15.0-58-generic #64-Ubuntu SMP Tue Aug 6 11:12:41 UTC 2019 x86_64 x86_64 x86_64 GNU/Linux

top - 01:14:37 up 1 day, 15:15,  0 users,  load average: 0,05, 0,23, 0,56
Tasks: 288 gesamt,   1 laufend, 149 schlafend,   0 gestoppt,   0 Zombie
%CPU(s):  7,0 be,  0,2 sy,  0,0 ni, 92,7 un,  0,0 wa,  0,0 hi,  0,0 si,  0,0 st
KiB Spch : 97514992 gesamt, 88269824 frei,   648552 belegt,  8596624 Puff/Cache
KiB Swap:  8388604 gesamt,  8388604 frei,        0 belegt. 96114240 verfü Spch 

  PID USER      PR  NI    VIRT    RES    SHR S  %CPU %MEM     ZEIT+ BEFEHL
    1 root      20   0  233872   9412   6688 S   0,0  0,0   0:12.80 systemd
    2 root      20   0       0      0      0 S   0,0  0,0   0:00.14 kthreadd
    3 root      20   0       0      0      0 I   0,0  0,0   0:00.00 kworker/0:0
    4 root       0 -20       0      0      0 I   0,0  0,0   0:00.00 kworker/0:+
    6 root      20   0       0      0      0 I   0,0  0,0   0:00.00 kworker/u3+
    7 root       0 -20       0      0      0 I   0,0  0,0   0:00.00 mm_percpu_+
    8 root      20   0       0      0      0 S   0,0  0,0   0:00.00 ksoftirqd/0
    9 root      20   0       0      0      0 I   0,0  0,0   0:14.03 rcu_sched

hard time limit: 04:10:00
hard mem limit: 55100

SLURM jobID: 2182753

@01 /nfs/optimi/kombadon/IP/coral/neos-702280.mps.gz ===========
-----------------------------
Fr 23. Aug 01:14:37 CEST 2019
-----------------------------
@03 1566515677
@05 7200
SCIP version 6.0.0 [precision: 8 byte] [memory: block] [mode: optimized] [LP solver: CPLEX 12.8.0.0] [GitHash: 41ab6e0014]
Copyright (C) 2002-2018 Konrad-Zuse-Zentrum fuer Informationstechnik Berlin (ZIB)

External codes: 
  Readline 7.0         GNU library for command line editing (gnu.org/s/readline)
  CPLEX 12.8.0.0       Linear Programming Solver developed by IBM (www.cplex.com)
  CppAD 20180000.0     Algorithmic Differentiation of C++ algorithms developed by B. Bell (www.coin-or.org/CppAD)
  ZLIB 1.2.11          General purpose compression library by J. Gailly and M. Adler (zlib.net)
  GMP 6.1.2            GNU Multiple Precision Arithmetic Library developed by T. Granlund (gmplib.org)
  bliss 0.73p          Computing Graph Automorphism Groups by T. Junttila and P. Kaski (http://www.tcs.hut.fi/Software/bliss/)

user parameter file <scip.set> not found - using default parameters

SCIP> 
SCIP> set load /home/optimi/bzfhende/opti/scip-opti/check/../settings/enable_treeeprofile.set
loaded parameter file </home/optimi/bzfhende/opti/scip-opti/check/../settings/enable_treeprofile.set>
SCIP> set misc referencevalue 12
misc/referencevalue = 12
SCIP> set limits time 7200
limits/time = 7200
SCIP> set limits nodes 2100000000
limits/nodes = 2100000000
SCIP> set limits memory 50000
limits/memory = 50000
SCIP> set lp advanced threads 1
lp/threads = 1
SCIP> set timing clocktype 1
timing/clocktype = 1
SCIP> set display freq 10000
display/freq = 10000
SCIP> set memory savefac 1.0
memory/savefac = 1
SCIP> set save /home/optimi/bzfhende/opti/scip-opti/check/treesize.estimation.jouurnal.3/bzfhende.MMMc.289_neos-702280.scip.M640.enable_treeprofile.set
saved parameter file </home/optimi/bzfhende/opti/scip-opti/check/treesize.estimation.journal.3/bzfhende.MMMc.289_neos-702280.scip.M640.enable_treeprofile.set>
SCIP> read /nfs/optimi/kombadon/IP/coral/neos-702280.mps.gz

read problem </nfs/optimi/kombadon/IP/coral/neos-702280.mps.gz>
============

original problem has 7199 variables (7199 bin, 0 int, 0 impl, 0 cont) and 1600 constraints
SCIP> display parameters

number of parameters = 2448
non-default parameter settings:
display/freq = 10000
limits/time = 7200
limits/nodes = 2100000000
limits/memory = 50000
lp/threads = 1
memory/savefac = 1
misc/referencevalue = 12
presolving/maxrestarts = 0
estimates/profile/enabled = TRUE
estimates/profile/maxdepthfactor = 10
estimates/profile/freq = 0

SCIP> optimize

Activating tree profile data collection
feasible solution found by trivial heuristic after 0.4 seconds, objective value 7.199000e+03
presolving:
(round 1, exhaustive) 0 del vars, 0 del conss, 0 add conss, 0 chg bounds, 0 chg sides, 0 chg coeffs, 1600 upgd conss, 0 impls, 0 clqs
   (2.8s) probing: 51/7199 (0.7%) - 0 fixings, 0 aggregations, 0 implications, 0 bound changes
   (2.8s) probing aborted: 50/50 successive totally useless probings
presolving (2 rounds: 2 fast, 2 medium, 2 exhaustive):
 0 deleted vars, 0 deleted constraints, 0 added constraints, 0 tightened bounds, 0 added holes, 0 changed sides, 0 changed coefficients
 0 implications, 0 cliques
presolved problem has 7199 variables (7199 bin, 0 int, 0 impl, 0 cont) and 1600 constraints
   1600 constraints of type <knapsack>
transformed objective value is always integral (scale: 1)
Presolving Time: 2.85
transformed 1/1 original solutions to the transformed problem space

 time | node  | left  |LP iter|LP it/n| mem |mdpt |frac |vars |cons |cols |rows |cuts |confs|strbr|  dualbound   | primalbound  |  gap   
k 4.0s|     1 |     0 |     0 |     - | 984M|   0 |   - |7199 |1600 |7199 |1600 |   0 |   0 |   0 | 0.000000e+00 | 1.300000e+01 |    Inf 
 10.1s|     1 |     0 |  4142 |     - | 984M|   0 | 227 |7199 |1600 |7199 |1600 |   0 |   0 |   0 | 7.166365e+00 | 1.300000e+01 |  81.40%
SCIP nodes: 1 Estimation: -1
  104s|     1 |     2 |  5973 |     - | 989M|   0 | 227 |7199 |1600 |7199 |1600 |   0 |   0 |  22 | 7.178430e+00 | 1.300000e+01 |  81.10%
   (104.0s) symmetry computation started: requiring (bin +, int -, cont -), (fixed: bin -, int +, cont -)
   (119.8s) symmetry computation finished: 1500 generators found (max: 1500, log10 of symmetry group size: 1078.4)
   (119.8s) turning off presolver <domcol> for remaining computations in order to avoid conflicts
SCIP nodes: 2 Estimation: -1
SCIP nodes: 4 Estimation: -1
SCIP nodes: 8 Estimation: -1
SCIP nodes: 16 Estimation: -1
SCIP nodes: 32 Estimation: -1
SCIP nodes: 64 Estimation: -1
SCIP nodes: 128 Estimation: -1
SCIP nodes: 256 Estimation: -1
SCIP nodes: 512 Estimation: -1
SCIP nodes: 1024 Estimation: -1
SCIP nodes: 2048 Estimation: 5812.94
SCIP nodes: 4096 Estimation: 466832
SCIP nodes: 8192 Estimation: 3.46513e+06
 3393s| 10000 |  6433 |  2403k| 240.0 |1445M| 264 |  32 |7199 |2609 |7199 |1600 |   0 |1490 |2420 | 7.857751e+00 | 1.300000e+01 |  65.44%
SCIP nodes: 16384 Estimation: 1.72686e+07
 5508s| 20000 | 13387 |  4093k| 204.5 |1580M| 295 |  53 |7199 |2764 |7199 |1600 |   0 |2226 |3278 | 7.910800e+00 | 1.300000e+01 |  64.33%
G6105s| 22958 | 15471 |  4581k| 199.4 |1622M| 301 |  24 |7199 |2727 |7199 |1600 |   0 |2374 |3483 | 7.914889e+00 | 1.300000e+01 |  64.25%

SCIP Status        : solving was interrupted [time limit reached]
Solving Time (sec) : 7200.00
Solving Nodes      : 28435
Primal Bound       : +1.30000000000000e+01 (1271 solutions)
Dual Bound         : +7.92826398777917e+00
Gap                : 63.97 %

SCIP> display statistics

SCIP Status        : solving was interrupted [time limit reached]
Total Time         :    7200.78
  solving          :    7200.00
  presolving       :       2.85 (included in solving)
  reading          :       0.78
  copying          :       7.14 (29 #copies) (minimal 0.24, maximal 0.26, average 0.25)
Original Problem   :
  Problem name     : file
  Variables        : 7199 (7199 binary, 0 integer, 0 implicit integer, 0 continuous)
  Constraints      : 1600 initial, 1600 maximal
  Objective        : minimize, 7199 non-zeros (abs.min = 1, abs.max = 1)
Presolved Problem  :
  Problem name     : t_file
  Variables        : 7199 (7199 binary, 0 integer, 0 implicit integer, 0 continuous)
  Constraints      : 1600 initial, 2788 maximal
  Objective        : minimize, 7199 non-zeros (abs.min = 1, abs.max = 1)
Presolvers         :   ExecTime  SetupTime  Calls  FixedVars   AggrVars   ChgTypes  ChgBounds   AddHoles    DelCons    AddCons   ChgSides   ChgCoefs
  boundshift       :       0.00       0.00      0          0          0          0          0          0          0          0          0          0
  convertinttobin  :       0.00       0.00      0          0          0          0          0          0          0          0          0          0
  domcol           :       0.51       0.00      1          0          0          0          0          0          0          0          0          0
  dualagg          :       0.00       0.00      0          0          0          0          0          0          0          0          0          0
  dualcomp         :       0.00       0.00      0          0          0          0          0          0          0          0          0          0
  dualinfer        :       0.00       0.00      0          0          0          0          0          0          0          0          0          0
  gateextraction   :       0.00       0.00      0          0          0          0          0          0          0          0          0          0
  implics          :       0.00       0.00      2          0          0          0          0          0          0          0          0          0
  inttobinary      :       0.00       0.00      0          0          0          0          0          0          0          0          0          0
  qpkktref         :       0.00       0.00      0          0          0          0          0          0          0          0          0          0
  redvub           :       0.00       0.00      0          0          0          0          0          0          0          0          0          0
  sparsify         :       0.27       0.00      1          0          0          0          0          0          0          0          0          0
  stuffing         :       0.00       0.00      0          0          0          0          0          0          0          0          0          0
  symbreak         :       0.00       0.00      0          0          0          0          0          0          0          0          0          0
  symmetry         :       0.00       0.00      0          0          0          0          0          0          0          0          0          0
  trivial          :       0.00       0.00      2          0          0          0          0          0          0          0          0          0
  tworowbnd        :       0.00       0.00      0          0          0          0          0          0          0          0          0          0
  dualfix          :       0.00       0.00      2          0          0          0          0          0          0          0          0          0
  genvbounds       :       0.00       0.00      0          0          0          0          0          0          0          0          0          0
  orbitalfixing    :       0.00       0.00      0          0          0          0          0          0          0          0          0          0
  probing          :       0.29       0.00      1          0          0          0          0          0          0          0          0          0
  pseudoobj        :       0.00       0.00      1          0          0          0          0          0          0          0          0          0
  vbounds          :       0.00       0.00      0          0          0          0          0          0          0          0          0          0
  knapsack         :       0.37       0.07      3          0          0          0          0          0          0          0          0          0
  linear           :       0.83       0.25      2          0          0          0          0          0          0          0          0          0
  logicor          :       0.00       0.00      0          0          0          0          0          0          0          0          0          0
  benders          :       0.00       0.00      0          0          0          0          0          0          0          0          0          0
  components       :       0.27       0.00      1          0          0          0          0          0          0          0          0          0
  root node        :          -          -      -          0          -          -          0          -          -          -          -          -
Constraints        :     Number  MaxNumber  #Separate #Propagate    #EnfoLP    #EnfoRelax  #EnfoPS    #Check   #ResProp    Cutoffs    DomReds       Cuts    Applied      Conss   Children
  benderslp        :          0          0          0          0      25364          0          0       2478          0          0          0          0          0          0          0
  integral         :          0          0          0          0      25364          0          0       2478          0          0       1950          0          0       2272      47830
  knapsack         :       1600       1600          1      86827          0          0          0       2473          1          6          0          0          0          0          0
  logicor          :          0+      1188          0      14065          0          0          0          0        581         38        544          0          0          0          0
  benders          :          0          0          0          0          0          0          0       1274          0          0          0          0          0          0          0
  countsols        :          0          0          0          0          0          0          0       1274          0          0          0          0          0          0          0
  components       :          0          0          0          0          0          0          0          0          0          0          0          0          0          0          0
Constraint Timings :  TotalTime  SetupTime   Separate  Propagate     EnfoLP     EnfoPS     EnfoRelax   Check    ResProp    SB-Prop
  benderslp        :       0.01       0.00       0.00       0.00       0.01       0.00       0.00       0.00       0.00       0.00
  integral         :     793.22       0.00       0.00       0.00     792.79       0.00       0.00       0.43       0.00       0.00
  knapsack         :     109.77       0.07       5.51      87.95       0.00       0.00       0.00       6.80       0.00       9.44
  logicor          :       0.51       0.00       0.00       0.34       0.00       0.00       0.00       0.00       0.00       0.17
  benders          :       0.00       0.00       0.00       0.00       0.00       0.00       0.00       0.00       0.00       0.00
  countsols        :       0.00       0.00       0.00       0.00       0.00       0.00       0.00       0.00       0.00       0.00
  components       :       0.08       0.00       0.00       0.07       0.00       0.00       0.00       0.00       0.00       0.01
Propagators        : #Propagate   #ResProp    Cutoffs    DomReds
  dualfix          :          2          0          0          0
  genvbounds       :          0          0          0          0
  nlobbt           :          0          0          0          0
  obbt             :          0          0          0          0
  orbitalfixing    :      30044          0          0          6
  probing          :          0          0          0          0
  pseudoobj        :      66219       1004          0       2107
  redcost          :      59607          0          0    6221578
  rootredcost      :          1          0          0          0
  vbounds          :     115788          0          0          0
Propagator Timings :  TotalTime  SetupTime   Presolve  Propagate    ResProp    SB-Prop
  dualfix          :       0.00       0.00       0.00       0.00       0.00       0.00
  genvbounds       :       0.10       0.00       0.00       0.10       0.00       0.00
  nlobbt           :       0.00       0.00       0.00       0.00       0.00       0.00
  obbt             :       0.00       0.00       0.00       0.00       0.00       0.00
  orbitalfixing    :    1312.87       0.00       0.00    1312.87       0.00       0.00
  probing          :       0.29       0.00       0.29       0.00       0.00       0.00
  pseudoobj        :       0.44       0.00       0.00       0.22       0.21       0.01
  redcost          :     111.01       0.00       0.00     110.99       0.00       0.02
  rootredcost      :       0.09       0.00       0.00       0.08       0.00       0.01
  vbounds          :       0.11       0.00       0.00       0.10       0.00       0.01
Orbital fixing     :
  vars fixed to 0  :          6
  vars fixed to 1  :          0
Conflict Analysis  :       Time      Calls    Success    DomReds  Conflicts   Literals    Reconvs ReconvLits   Dualrays   Nonzeros   LP Iters   (pool size: [10000,10000])
  propagation      :       0.21         44         16          -         17      547.7          0        0.0          -          -          -
  infeasible LP    :       0.00          0          0          -          0        0.0          0        0.0          0        0.0          0
  bound exceed. LP :      98.04       2261       2258          -       2690       53.3          1       20.0          0        0.0      24533
  strong branching :       0.00          0          0          -          0        0.0          0        0.0          -          -          0
  pseudo solution  :       0.00          5          4          -          4       13.0          0        0.0          -          -          -
  applied globally :       0.03          -          -          0       2660       53.3          -          -          0          -          -
  applied locally  :          -          -          -          0          5     1350.0          -          -          0          -          -
Separators         :   ExecTime  SetupTime      Calls    Cutoffs    DomReds       Cuts    Applied      Conss
  cut pool         :       0.00                     0          -          -          0          -          -    (maximal pool size: 0)
  aggregation      :       6.39       0.00        472          0          0          0          0          0
  cgmip            :       0.00       0.00          0          0          0          0          0          0
  clique           :       0.00       0.00          1          0          0          0          0          0
  closecuts        :       0.00       0.00          0          0          0          0          0          0
  cmir             :       0.00       0.00          0          0          0          0          0          0
  convexproj       :       0.00       0.00          0          0          0          0          0          0
  disjunctive      :       0.00       0.00          0          0          0          0          0          0
  eccuts           :       0.00       0.00          0          0          0          0          0          0
  flowcover        :       0.00       0.00          0          0          0          0          0          0
  gauge            :       0.00       0.00          0          0          0          0          0          0
  gomory           :      18.88       0.00        406          0          0          0          0          0
  impliedbounds    :       0.04       0.00        472          0          0          0          0          0
  intobj           :       0.00       0.00          0          0          0          0          0          0
  mcf              :       0.00       0.00          1          0          0          0          0          0
  oddcycle         :       0.00       0.00          0          0          0          0          0          0
  rapidlearning    :       0.00       0.00          0          0          0          0          0          0
  strongcg         :       0.16       0.00          2          0          0          0          0          0
  zerohalf         :       0.22       0.00        406          0          0          0          0          0
Pricers            :   ExecTime  SetupTime      Calls       Vars
  problem variables:       0.00          -          0          0
Branching Rules    :   ExecTime  SetupTime   BranchLP  BranchExt   BranchPS    Cutoffs    DomReds       Cuts      Conss   Children
  allfullstrong    :       0.00       0.00          0          0          0          0          0          0          0          0
  cloud            :       0.00       0.00          0          0          0          0          0          0          0          0
  distribution     :       0.00       0.00          0          0          0          0          0          0          0          0
  fullstrong       :       0.00       0.00          0          0          0          0          0          0          0          0
  inference        :       0.00       0.00          0          0          0          0          0          0          0          0
  leastinf         :       0.00       0.00          0          0          0          0          0          0          0          0
  lookahead        :       0.00       0.00          0          0          0          0          0          0          0          0
  mostinf          :       0.00       0.00          0          0          0          0          0          0          0          0
  multaggr         :       0.00       0.00          0          0          0          0          0          0          0          0
  nodereopt        :       0.00       0.00          0          0          0          0          0          0          0          0
  pscost           :       0.00       0.00          0          0          0          0          0          0          0          0
  random           :       0.00       0.00          0          0          0          0          0          0          0          0
  relpscost        :     792.63       0.00      25364          0          0          0       1950          0       2272      47830
Primal Heuristics  :   ExecTime  SetupTime      Calls      Found       Best
  LP solutions     :       0.00          -          -          0          0
  relax solutions  :       0.00          -          -          0          0
  pseudo solutions :       0.00          -          -          0          0
  strong branching :       2.24          -          -        601          0
  actconsdiving    :       0.00       0.00          0          0          0
  alns             :     119.74       0.00          6          0          0
  bound            :       0.00       0.00          0          0          0
  clique           :       0.00       0.00          0          0          0
  coefdiving       :      26.61       0.00         44          0          0
  completesol      :       0.00       0.00          0          0          0
  conflictdiving   :       0.00       0.00          0          0          0
  crossover        :      17.03       0.00         11         10          0
  dins             :       0.00       0.00          0          0          0
  distributiondivin:      60.16       0.00         44          0          0
  dualval          :       0.00       0.00          0          0          0
  farkasdiving     :       0.00       0.00          0          0          0
  feaspump         :       7.60       0.00          1          1          0
  fixandinfer      :       0.00       0.00          0          0          0
  fracdiving       :      26.74       0.00         44          0          0
  gins             :       0.07       0.00          0          0          0
  guideddiving     :      11.27       0.00         44          0          0
  indicator        :       0.03       0.00          0          0          0
  intdiving        :       0.00       0.00          0          0          0
  intshifting      :       0.00       0.00          0          0          0
  linesearchdiving :       6.01       0.00         44          0          0
  localbranching   :       0.00       0.00          0          0          0
  locks            :       0.79       0.00          1          1          1
  lpface           :       0.03       0.00          0          0          0
  mpec             :       0.00       0.00          0          0          0
  multistart       :       0.00       0.00          0          0          0
  mutation         :       0.00       0.00          0          0          0
  nlpdiving        :       0.00       0.00          0          0          0
  objpscostdiving  :      49.29       0.00         23          3          0
  octane           :       0.00       0.00          0          0          0
  ofins            :       0.06       0.00          0          0          0
  oneopt           :       0.13       0.00          2          0          0
  proximity        :       0.00       0.00          0          0          0
  pscostdiving     :      45.88       0.00         44          5          0
  randrounding     :       6.43       0.00       1242          9          0
  rens             :      48.14       0.00          1          1          0
  reoptsols        :       0.00       0.00          0          0          0
  repair           :       0.00       0.00          0          0          0
  rins             :      22.91       0.00         11          8          0
  rootsoldiving    :       7.31       0.00         23          0          0
  rounding         :       0.46       0.00       2207          0          0
  shiftandpropagate:       0.00       0.00          0          0          0
  shifting         :       0.32       0.00        655          0          0
  simplerounding   :       2.14       0.00      25364         13          0
  subnlp           :       0.04       0.00          0          0          0
  trivial          :       0.06       0.00          2          1          1
  trivialnegation  :       0.00       0.00          0          0          0
  trysol           :       0.03       0.00          0          0          0
  twoopt           :       0.00       0.00          0          0          0
  undercover       :       0.00       0.00          0          0          0
  vbounds          :       0.00       0.00          0          0          0
  veclendiving     :       5.89       0.00         44          0          0
  zeroobj          :       0.00       0.00          0          0          0
  zirounding       :      23.83       0.00      23915        618          0
  other solutions  :          -          -          -          0          -
Diving Statistics  :      Calls      Nodes   LP Iters Backtracks  Conflicts   MinDepth   MaxDepth   AvgDepth  RoundSols  NLeafSols  MinSolDpt  MaxSolDpt  AvgSolDpt
  actconsdiving    :          0          -          -          -          -          -          -          -          -          -          -          -          -
  coefdiving       :         44       6327      32416          0         44         40        733      220.1          0          -          -          -          -
  conflictdiving   :          0          -          -          -          -          -          -          -          -          -          -          -          -
  distributiondivin:         44      10129      46219         27         55         49       1397      299.8          0          -          -          -          -
  farkasdiving     :          0          -          -          -          -          -          -          -          -          -          -          -          -
  fracdiving       :         44       6440      31010          0         49         64        632      221.1          0          -          -          -          -
  guideddiving     :         44       2665       9123          0         55         77        339      137.3          0          -          -          -          -
  linesearchdiving :         44       2188       1007          0         49         73        361      137.5          0          -          -          -          -
  pscostdiving     :         44      10834      33854         30         71         44        959      316.9          5          -          -          -          -
  veclendiving     :         44       2133       1143          0         51         55        314      127.4          0          -          -          -          -
Neighborhoods      :      Calls  SetupTime  SolveTime SolveNodes       Sols       Best       Exp3  EpsGreedy        UCB TgtFixRate  Opt  Inf Node Stal  Sol  Usr Othr Actv
  rens             :          0       0.00       0.00          0          0          0    0.00000   -1.00000    1.00000      0.900    0    0    0    0    0    0    0    1
  rins             :          1       0.30      13.25         50          0          0    0.00000   -1.00000    1.00000      0.900    0    0    0    1    0    0    0    1
  mutation         :          1       0.28       0.03          0          0          0    0.00000   -1.00000    1.00000      0.700    0    1    0    0    0    0    0    1
  localbranching   :          1       0.29      27.06         57          0          0    0.00000   -1.00000    1.00000      0.900    0    0    0    1    0    0    0    1
  crossover        :          0       0.00       0.00          0          0          0    0.00000   -1.00000    1.00000      0.900    0    0    0    0    0    0    0    1
  proximity        :          1       0.27      10.80         55          0          0    0.00000   -1.00000    1.00000      0.900    0    0    0    1    0    0    0    1
  zeroobjective    :          1       0.29      40.77         78          0          0    0.00000   -1.00000    1.00000      0.900    0    0    0    1    0    0    0    1
  dins             :          1       0.30      25.86         50          0          0    0.00000   -1.00000    1.00000      0.900    0    0    0    1    0    0    0    1
LP                 :       Time      Calls Iterations  Iter/call   Iter/sec  Time-0-It Calls-0-It    ItLimit
  primal LP        :       0.00          0          0       0.00          -       0.00          0
  dual LP          :    4282.88      38746    5288699     177.07    1234.85      89.78       8879
  lex dual LP      :       0.00          0          0       0.00          -
  barrier LP       :       0.00          0          0       0.00          -       0.00          0
  resolve instable :       0.00          0          0       0.00          -
  diving/probing LP:     225.29       3405     170140      49.97     755.20
  strong branching :     645.72       3839     875398     228.03    1355.69          -          -       1037
    (at root node) :          -         22      14471     657.77          -
  conflict analysis:      91.27       2469      24533       9.94     268.80
B&B Tree           :
  number of runs   :          1
  nodes            :      28435 (23915 internal, 4520 leaves)
  feasible leaves  :          0
  infeas. leaves   :         17
  objective leaves :       4502
  nodes (total)    :      28435 (23915 internal, 4520 leaves)
  nodes left       :      19397
  max depth        :        315
  max depth (total):        315
  backtracks       :       1012 (3.6%)
  early backtracks :        264 (26.1%)
  nodes exc. ref.  :       3484 (12.3%)
  delayed cutoffs  :          0
  repropagations   :       1610 (548 domain reductions, 0 cutoffs)
  avg switch length:       4.21
  switching time   :      90.22
Root Node          :
  First LP value   : +7.16636502082441e+00
  First LP Iters   :       4142 (682.37 Iter/sec)
  First LP Time    :       6.07
  Final Dual Bound : +7.17842968271723e+00
  Final Root Iters :       4142
  Root LP Estimate : +7.49055652093746e+00
Solution           :
  Solutions found  :       1271 (2 improvements)
  First Solution   : +7.19900000000000e+03   (in run 1, after 0 nodes, 0.33 seconds, depth 0, found by <trivial>)
  Gap First Sol.   :   infinite
  Gap Last Sol.    :      64.25 %
  Primal Bound     : +1.30000000000000e+01   (in run 1, after 22958 nodes, 6104.59 seconds, depth 80, found by <randrounding>)
  Dual Bound       : +7.92826398777917e+00
  Gap              :      63.97 %
  Avg. Gap         :      40.22 % (289619.03 primal-dual integral)
  Tree Data        : 47831 nodes (28434 visited, 23915 inner, 4519 leaves, 19397 open), progress: 0.0040
Tree Estimation    :       estim       value       trend  resolution      smooth
  wbe              :     2251815           -           -           -           -
  tree profile     : 136001350165           -           -           -           -
  gap              :      653755     0.60985     0.00001           8      621347
  progress         :       56868     0.00401     0.00000           8       56738
  leaf-frequency   :       56868     0.15893    -0.00001           8       56751
  ssg              :     1296992     0.90181    -0.00001           8     1232256
  open-nodes       :       56868 19393.00000    26.82655           8       56738


SCIP> checksol

check best solution
solution is feasible in original problem
Violation          :    absolute    relative
  bounds           : 0.00000e+00 0.00000e+00
  integrality      : 0.00000e+00           -
  LP rows          : 0.00000e+00 0.00000e+00
  constraints      : 0.00000e+00 0.00000e+00

SCIP> write sol /local/tmp/bzfhende-tmpdir/bzfhende.MMMc.289_neos-702280.scip.M6440.enable_treeprofile.sol

written solution information to file </local/tmp/bzfhende-tmpdir/bzfhende.MMMc.289_neos-702280.scip.M640.enable_treeprofile.sol>

SCIP> quit

Disabling tree profile data collection
Read MPS: 1
MIP has 7199 vars and 1600 constraints
Read SOL: 1
Objective value computed by solver: 13

Integrality tolerance: 1/10000
Linear tolerance: 1/10000
Objective tolerance: 1/10000

Check SOL: Integrality 1 Constraints 1 Objective 1
Maximum violations: Integrality 0 Constraints 0 Objective 0
@04 1566522907
-----------------------------
Fr 23. Aug 03:15:07 CEST 2019
-----------------------------

=ready=
